32      4       
12      14      12      12      
0       0       0       0       0       3       2       3       4       
2       0       0       0       9       3       7       18      19      
5       0       0       0       1       3       5       6       10      
4       0       0       7       0       3       8       10      21      
6       0       0       0       8       3       7       9       16      
9       0       2       0       0       3       11      13      15      
8       0       3       0       0       3       13      30      31      
1       2       0       0       0       3       12      13      16      
9       0       0       2       0       3       11      19      25      
5       0       0       0       6       3       14      24      25      
10      0       9       0       0       3       14      21      28      
9       0       0       9       0       2       17      20      
6       2       0       0       0       2       14      23      
7       0       0       7       0       1       29      
1       10      0       0       0       3       16      17      21      
5       0       6       0       0       3       23      26      27      
1       0       0       0       5       1       18      
4       0       9       0       0       3       22      24      25      
10      2       0       0       0       3       20      22      31      
4       5       0       0       0       2       23      24      
3       8       0       0       0       2       22      27      
8       0       0       5       0       1       29      
7       0       0       0       1       1       29      
2       2       0       0       0       2       26      28      
7       0       0       0       10      3       26      27      28      
7       8       0       0       0       1       30      
8       0       4       0       0       1       31      
2       0       0       3       0       1       30      
4       0       0       1       0       1       32      
8       0       0       0       10      1       32      
1       0       8       0       0       1       32      
0       0       0       0       0       0       